10
1 0 9
2 0 12
2 1 1
3 0 8
3 1 1
3 2 11
4 0 2
4 1 9
4 2 8
4 3 1
5 0 3
5 1 12
5 2 13
5 3 4
5 4 1
6 0 4
6 1 5
6 2 2
6 3 5
6 4 5
6 5 5
7 0 11
7 1 1
7 2 10
7 3 8
7 4 6
7 5 6
7 6 12
8 0 3
8 1 1
8 2 12
8 3 1
8 4 11
8 5 12
8 6 6
8 7 10
9 0 7
9 1 1
9 2 12
9 3 10
9 4 8
9 5 7
9 6 7
9 7 11
9 8 11
